<number of tasks>
15

<cycle time>
25

<task times>
1 3
2 5
3 4
4 6
5 2
6 7
7 4
8 5
9 3
10 6
11 2
12 4
13 7
14 5
15 3

<precedence relations>
1,2
2,3
3,4
4,5
5,6
6,7
7,8
8,9
9,10
10,11
11,12
12,13
13,14
14,15

<setup times forward>
1,2:3
2,3:5
3,4:4
4,5:6
5,6:2
6,7:7
7,8:4
8,9:5
9,10:3
10,11:6
11,12:2
12,13:4
13,14:5
14,15:5

<setup times backward>
2,1:3
3,2:5
4,3:4
5,4:6
6,5:2
7,6:7
8,7:4
9,8:5
10,9:3
11,10:6
12,11:2
13,12:4
14,13:7
15,14:5

<end>


<rand seed>
467321153